(set-info :source |printed by MathSAT|)
(declare-fun ldv_module_refcounter () (_ BitVec 32))

*:
(assert (let ((.def_28252 (= ldv_module_refcounter (_ bv1 32)))).def_28252))
(assert (let ((.def_28257 (bvslt (_ bv1 32) ldv_module_refcounter))).def_28257))

